NAME : 5.81601.tour
COMMENT : Length = 81601
COMMENT : Found by LKH-3 [Keld Helsgaun] Thu Jun 19 18:16:04 2025
TYPE : TOUR
DIMENSION : 100
TOUR_SECTION
1
58
29
42
83
99
33
12
24
32
55
37
67
9
84
34
13
70
3
100
26
78
49
62
56
19
61
85
14
71
47
22
92
81
91
17
66
64
94
79
41
43
52
75
74
95
20
27
73
2
77
98
53
88
97
68
38
35
11
48
6
65
39
96
54
45
60
86
5
15
36
18
76
57
50
89
80
16
59
93
40
28
72
7
4
25
51
8
63
31
10
46
30
90
87
69
21
44
23
82
-1
EOF
